interface I
{
  in void a();
  out void b();
  behavior
  {
    on a: b;
  }
}

component indirect_multiple_out1
{
  provides I p;
  requires I r1;
  requires I r2;
  behavior
  {
    on p.a(): {r1.a(); r2.a();}
    on r1.b(): {}
    on r2.b(): p.b();
  }
}
